
(set-logic BV)

(define-fun shr1 ((x (BitVec 64))) (BitVec 64) (bvlshr x #x0000000000000001))
(define-fun shr4 ((x (BitVec 64))) (BitVec 64) (bvlshr x #x0000000000000004))
(define-fun shr16 ((x (BitVec 64))) (BitVec 64) (bvlshr x #x0000000000000010))
(define-fun shl1 ((x (BitVec 64))) (BitVec 64) (bvshl x #x0000000000000001))
(define-fun if0 ((x (BitVec 64)) (y (BitVec 64)) (z (BitVec 64))) (BitVec 64) (ite (= x #x0000000000000001) y z))
(define-fun func26  ((A (BitVec 64)) (B (BitVec 64)) (C (BitVec 64)) (D (BitVec 64)) ) (BitVec 64) (bvand (bvlshr (bvlshr C  D ) B ) A ))
(define-fun func27  ((A (BitVec 64)) (B (BitVec 64)) (C (BitVec 64)) ) (BitVec 64) (bvand (bvlshr B  C ) A ))
(define-fun func28  ((A (BitVec 64)) (B (BitVec 64)) ) (BitVec 64) (bvand (bvlshr B  #x0000000000000001 ) A ))
(define-fun func29  ((A (BitVec 64)) (B (BitVec 64)) ) (BitVec 64) (bvand (bvlshr B  #x0000000000000010 ) A ))
(define-fun func30  ((A (BitVec 64)) (B (BitVec 64)) ) (BitVec 64) (bvand (bvlshr B  #x0000000000000004 ) A ))
(define-fun func31  ((A (BitVec 64)) (B (BitVec 64)) ) (BitVec 64) (bvand (bvlshr A  B ) #x0000000000000001 ))
(define-fun func32  ((A (BitVec 64)) ) (BitVec 64) (bvand A  #x0000000000000001 ))
(define-fun func33  ((A (BitVec 64)) (B (BitVec 64)) (C (BitVec 64)) (D (BitVec 64)) ) (BitVec 64) (bvlshr (bvlshr (bvlshr C  D ) B ) A ))
(define-fun func34  ((A (BitVec 64)) (B (BitVec 64)) (C (BitVec 64)) ) (BitVec 64) (bvlshr (bvlshr (bvlshr C  #x0000000000000010 ) B ) A ))
(define-fun func35  ((A (BitVec 64)) (B (BitVec 64)) (C (BitVec 64)) ) (BitVec 64) (bvlshr (bvlshr B  C ) A ))
(define-fun func36  ((A (BitVec 64)) (B (BitVec 64)) ) (BitVec 64) (bvlshr (bvlshr B  #x0000000000000010 ) A ))
(define-fun func37  ((A (BitVec 64)) (B (BitVec 64)) ) (BitVec 64) (bvlshr (bvlshr B  #x0000000000000004 ) A ))
(define-fun func38  ((A (BitVec 64)) (B (BitVec 64)) ) (BitVec 64) (bvlshr (bvlshr B  #x0000000000000001 ) A ))
(define-fun func39  ((A (BitVec 64)) (B (BitVec 64)) ) (BitVec 64) (bvlshr (bvlshr A  B ) #x0000000000000001 ))
(define-fun func40  ((A (BitVec 64)) (B (BitVec 64)) ) (BitVec 64) (bvlshr (bvlshr A  B ) #x0000000000000004 ))
(define-fun func41  ((A (BitVec 64)) (B (BitVec 64)) ) (BitVec 64) (bvlshr A  B ))
(define-fun func42  ((A (BitVec 64)) (B (BitVec 64)) (C (BitVec 64)) ) (BitVec 64) (bvlshr (bvshl B  C ) A ))
(define-fun func43  ((A (BitVec 64)) (B (BitVec 64)) ) (BitVec 64) (bvlshr (bvshl B  #x0000000000000001 ) A ))
(define-fun func44  ((A (BitVec 64)) (B (BitVec 64)) (C (BitVec 64)) ) (BitVec 64) (bvlshr (bvadd B  C ) A ))
(define-fun func45  ((A (BitVec 64)) (B (BitVec 64)) ) (BitVec 64) (bvlshr (bvnot B ) A ))
(define-fun func46  ((A (BitVec 64)) ) (BitVec 64) (bvlshr (bvnot #x0000000000000000 ) A ))
(define-fun func47  ((A (BitVec 64)) ) (BitVec 64) (bvlshr (bvnot A ) #x0000000000000010 ))
(define-fun func48  ((A (BitVec 64)) (B (BitVec 64)) (C (BitVec 64)) ) (BitVec 64) (bvor (bvlshr B  C ) A ))
(define-fun func49  ((A (BitVec 64)) ) (BitVec 64) (bvor A  #x0000000000000001 ))
(define-fun func50  ((A (BitVec 64)) (B (BitVec 64)) (C (BitVec 64)) ) (BitVec 64) (bvshl (bvlshr B  C ) A ))
(define-fun func51  ((A (BitVec 64)) (B (BitVec 64)) ) (BitVec 64) (bvshl (bvlshr B  #x0000000000000001 ) A ))
(define-fun func52  ((A (BitVec 64)) (B (BitVec 64)) ) (BitVec 64) (bvshl (bvlshr A  B ) #x0000000000000001 ))
(define-fun func54  ((A (BitVec 64)) (B (BitVec 64)) (C (BitVec 64)) ) (BitVec 64) (bvshl (bvshl B  C ) A ))
(define-fun func55  ((A (BitVec 64)) (B (BitVec 64)) ) (BitVec 64) (bvshl (bvshl B  #x0000000000000001 ) A ))
(define-fun func56  ((A (BitVec 64)) (B (BitVec 64)) ) (BitVec 64) (bvshl (bvshl A  B ) #x0000000000000001 ))
(define-fun func57  ((A (BitVec 64)) (B (BitVec 64)) ) (BitVec 64) (bvshl (bvnot B ) A ))
(define-fun func58  ((A (BitVec 64)) ) (BitVec 64) (bvshl (bvnot A ) #x0000000000000001 ))
(define-fun func59  ((A (BitVec 64)) (B (BitVec 64)) (C (BitVec 64)) ) (BitVec 64) (bvadd (bvlshr B  C ) A ))
(define-fun func60  ((A (BitVec 64)) ) (BitVec 64) (bvadd A  #x0000000000000001 ))
(define-fun func61  ((A (BitVec 64)) (B (BitVec 64)) (C (BitVec 64)) ) (BitVec 64) (bvadd (bvshl B  C ) A ))
(define-fun func62  ((A (BitVec 64)) (B (BitVec 64)) ) (BitVec 64) (bvadd (bvshl B  #x0000000000000001 ) A ))
(define-fun func63  ((A (BitVec 64)) ) (BitVec 64) (bvnot (bvshl A  #x0000000000000001 )))
(synth-fun f ( (x (BitVec 64))) (BitVec 64)
(
(Start (BitVec 64) (
   #x0000000000000000
   #x0000000000000001
   x
   (func32 Start)
   (func35 Start Start Start)
   (func37 Start Start)
   (func38 Start Start)
   (func39 Start Start)
   (func43 Start Start)
   (func44 Start Start Start)
   (func49 Start)
   (func51 Start Start)
   (func54 Start Start Start)
   (func55 Start Start)
   (func56 Start Start)
   (func59 Start Start Start)
   (func61 Start Start Start)
   (bvnot Start)
   (shl1 Start)
   (shr1 Start)
   (shr4 Start)
   (shr16 Start)
   (bvand Start Start)
   (bvor Start Start)
   (bvxor Start Start)
   (bvadd Start Start)
   (if0 Start Start Start)
))
))
(constraint (= (f #xdb42d47791c5165d) #x24bd2b886e3ae9a2))
(constraint (= (f #x08a76e2e48623fad) #xf75891d1b79dc052))
(constraint (= (f #x71860c6d56659dbf) #x8e79f392a99a6240))
(constraint (= (f #x199b459379a3ed1d) #xe664ba6c865c12e2))
(constraint (= (f #xad717267316d0f63) #x528e8d98ce92f09c))
(constraint (= (f #xe1b2bb3bb0b3646e) #xe1b2bb3bb0b3646c))
(constraint (= (f #xcd19bb7c6eb617b8) #xcd19bb7c6eb617ba))
(constraint (= (f #x3d7275e017443e52) #x3d7275e017443e50))
(constraint (= (f #x6215c2ba40d5f808) #x6215c2ba40d5f80a))
(constraint (= (f #xf97b85edbb8f303a) #xf97b85edbb8f3038))
(constraint (= (f #x0000000000000001) #xfffffffffffffffe))
(constraint (= (f #x29122914aa54aa53) #xd6edd6eb55ab55ac))
(constraint (= (f #x2551015292401543) #xdaaefead6dbfeabc))
(constraint (= (f #x491249500524a50b) #xb6edb6affadb5af4))
(constraint (= (f #x1549548115245253) #xeab6ab7eeadbadac))
(constraint (= (f #x4a2aa2529142a90b) #xb5d55dad6ebd56f4))
(constraint (= (f #xe9770aa10cacb30c) #xe9770aa10cacb30e))
(constraint (= (f #x1c14b64e2717423e) #x1c14b64e2717423c))
(constraint (= (f #xd123e2eaed9b2040) #xd123e2eaed9b2042))
(constraint (= (f #x6bb2782a4cb648ba) #x6bb2782a4cb648b8))
(constraint (= (f #xe6a8adcd2a0515d6) #xe6a8adcd2a0515d4))
(constraint (= (f #x0ada9e34c6e7938d) #xf52561cb39186c72))
(constraint (= (f #xb93e327e6dcd693d) #x46c1cd81923296c2))
(constraint (= (f #xc8293b7147e394ce) #xc8293b7147e394cc))
(constraint (= (f #x9a778869ee82e19c) #x9a778869ee82e19e))
(constraint (= (f #xacc924e82ea4eec5) #x5336db17d15b113a))
(constraint (= (f #x0000000000000001) #xfffffffffffffffe))
(constraint (= (f #x540a52a52a520913) #xabf5ad5ad5adf6ec))
(check-synth)
